15
1 0 32
2 1 5
3 0 49
4 0 40
4 1 17
5 0 1
5 1 9
5 2 30
6 0 8
6 2 47
6 4 20
7 1 5
8 0 23
8 1 17
8 5 36
9 1 30
9 2 5
9 4 18
9 6 32
9 7 5
9 8 28
10 0 24
10 1 42
10 2 30
10 4 7
10 5 24
10 6 23
10 7 18
10 8 7
11 0 16
11 2 15
11 5 32
11 8 9
11 10 31
12 0 14
12 1 10
12 3 11
12 4 12
12 6 33
12 9 6
12 11 21
13 0 45
13 6 40
13 7 29
13 10 32
14 3 8
14 5 30
14 6 17
14 7 50
14 10 7
14 12 4
14 13 43
